61
392
86
307
161
105
901
45
3329
13048
4407
1484
230
200
188
1426
196
46
5304
465
442
292
670
79
192
67
407
3338
227
171
106
658
844
409
226
368
171
125
693
240
72
1471
443
361
658
193
7812
84
907
4375
437
217
487
172
143
309
4562
2456
271
777
612
584
636
55
317
1933
265
662
353
161
131
1457
259
269
1208
1005
253
542
1307
909
319
1203
250
238
176
117
118
446
121
344
715
4023
1708
1246
115
759
422
96
288
422
